DIMENSION: 24
EDGE_WEIGHT_TYPE: EXPLICIT
EDGE_WEIGHT_FORMAT: FULL_MATRIX
EDGE_WEIGHT_SECTION:
32767 32 95 95 32767 32767 98 59 32767 91 34 20 32767 32767 32767 20 29 32767 32767 32767 32767 32767 32767 32767 
32 32767 29 32767 99 32767 48 32767 32767 45 57 32767 76 32767 32767 32767 32767 72 32767 40 94 32767 32767 42 
95 29 32767 80 32767 81 42 32767 32767 32767 32767 32767 64 32767 11 62 60 32767 32767 32767 6 32767 32767 32767 
95 32767 80 32767 32767 32767 32767 100 32767 32767 51 32767 32767 32767 87 32767 32767 54 32767 32767 92 53 32767 32767 
32767 99 32767 32767 32767 32767 97 32767 32767 54 26 71 73 32767 32767 44 32767 32767 32767 32767 32767 72 32767 15 
32767 32767 81 32767 32767 32767 18 32767 98 32767 32767 5 32767 32767 32767 79 91 8 32767 32767 86 96 32767 32767 
98 48 42 32767 97 18 32767 32767 49 55 32767 36 32767 32767 32767 47 82 32767 10 32767 52 14 32767 32767 
59 32767 32767 100 32767 32767 32767 32767 20 32767 37 56 74 83 97 88 32767 32767 72 100 32767 32767 32767 32767 
32767 32767 32767 32767 32767 98 49 20 32767 32767 45 94 68 89 54 32767 82 32767 32767 32767 32767 32767 32767 32767 
91 45 32767 32767 54 32767 55 32767 32767 32767 32767 32767 48 37 32767 32767 86 8 32767 53 60 32767 32767 32767 
34 57 32767 51 26 32767 32767 37 45 32767 32767 32767 32767 52 35 32767 32767 54 32767 32767 32767 32767 32767 32767 
20 32767 32767 32767 71 5 36 56 94 32767 32767 32767 57 69 32767 32767 25 32767 32767 32767 32767 32767 32767 32767 
32767 76 64 32767 73 32767 32767 74 68 48 32767 57 32767 32767 41 32767 27 13 49 32767 32767 95 32767 32767 
32767 32767 32767 32767 32767 32767 32767 83 89 37 52 69 32767 32767 53 32767 32767 32767 32767 23 32767 2 49 19 
32767 32767 11 87 32767 32767 32767 97 54 32767 35 32767 41 53 32767 65 32767 32767 32767 32767 32767 32767 32767 22 
20 32767 62 32767 44 79 47 88 32767 32767 32767 32767 32767 32767 65 32767 98 32767 32767 86 32767 24 60 7 
29 32767 60 32767 32767 91 82 32767 82 86 32767 25 27 32767 32767 98 32767 90 53 89 62 32767 9 75 
32767 72 32767 54 32767 8 32767 32767 32767 8 54 32767 13 32767 32767 32767 90 32767 32767 32767 32767 32767 32767 93 
32767 32767 32767 32767 32767 32767 10 72 32767 32767 32767 32767 49 32767 32767 32767 53 32767 32767 32767 32767 32767 32767 57 
32767 40 32767 32767 32767 32767 32767 100 32767 53 32767 32767 32767 23 32767 86 89 32767 32767 32767 32767 68 31 32767 
32767 94 6 92 32767 86 52 32767 32767 60 32767 32767 32767 32767 32767 32767 62 32767 32767 32767 32767 32767 32767 32767 
32767 32767 32767 53 72 96 14 32767 32767 32767 32767 32767 95 2 32767 24 32767 32767 32767 68 32767 32767 32767 91 
32767 32767 32767 32767 32767 32767 32767 32767 32767 32767 32767 32767 32767 49 32767 60 9 32767 32767 31 32767 32767 32767 32767 
32767 42 32767 32767 15 32767 32767 32767 32767 32767 32767 32767 32767 19 22 7 75 93 57 32767 32767 91 32767 32767 
EOF